tsp_instances/TSP50/instance100.tsp
NODE_COORD_SECTION
0 68 23
1 27 93
2 17 159
3 59 140
4 13 156
5 112 69
6 51 144
7 135 0
8 55 188
9 93 43
10 172 134
11 43 100
12 62 48
13 151 22
14 5 50
15 20 122
16 86 77
17 135 46
18 51 179
19 50 198
20 191 66
21 23 88
22 90 113
23 9 76
24 43 159
25 200 149
26 55 154
27 53 141
28 33 71
29 46 18
30 40 176
31 174 107
32 24 74
33 59 134
34 197 7
35 191 199
36 118 45
37 111 19
38 19 63
39 180 30
40 32 21
41 157 145
42 123 47
43 18 21
44 173 106
45 22 118
46 22 74
47 127 30
48 131 137
49 111 140
