tsp_instances/TSP50/instance100.opt.tour
TOUR_SECTION
1
13
10
17
6
37
43
18
48
38
8
14
35
40
21
45
32
11
26
36
42
49
50
23
34
4
28
7
27
25
19
9
20
31
3
5
16
46
12
2
22
24
47
33
29
39
15
44
41
30
-1